\ This file has been generated by DOcplex
\ ENCODING=ISO-8859-1
\Problem name: random_problem.lp

Minimize
 obj: - 0.011470425704 x0 - 0.005735212852 x1 - 0.002867606426 x2
      + 0.006118187397 x3 + 0.003059093698 x4 + 0.001529546849 x5 + [
      0.003429675085 x0^2 + 0.003429675085 x0*x1 + 0.001714837542 x0*x2
      + 0.000641203792 x0*x3 + 0.000320601896 x0*x4 + 0.000160300948 x0*x5
      + 0.000857418771 x1^2 + 0.000857418771 x1*x2 + 0.000320601896 x1*x3
      + 0.000160300948 x1*x4 + 0.000080150474 x1*x5 + 0.000214354693 x2^2
      + 0.000160300948 x2*x3 + 0.000080150474 x2*x4 + 0.000040075237 x2*x5
      + 0.009001368831 x3^2 + 0.009001368831 x3*x4 + 0.004500684416 x3*x5
      + 0.002250342208 x4^2 + 0.002250342208 x4*x5 + 0.000562585552 x5^2 ]/2
Subject To
 c0: 4 x0 + 2 x1 + x2 + 4 x3 + 2 x4 + x5 = 7

Bounds
 0 <= x0 <= 1
 0 <= x1 <= 1
 0 <= x2 <= 1
 0 <= x3 <= 1
 0 <= x4 <= 1
 0 <= x5 <= 1

Binaries
 x0 x1 x2 x3 x4 x5
End
